GLPSOL: GLPK LP/MIP Solver, v4.55
Parameter(s) specified in the command line:
 -m tmp.mod
Reading model section from tmp.mod...
Reading data section from tmp.mod...
876 lines were read
Generating obj...
Generating kirhoff...
Generating init_charge...
Generating batt_size...
Model has been successfully generated
GLPK Simplex Optimizer, v4.55
1463 rows, 1439 columns, 2954 non-zeros
Preprocessing...
843 rows, 1333 columns, 2810 non-zeros
Scaling...
 A: min|aij| =  1.000e+00  max|aij| =  1.000e+00  ratio =  1.000e+00
Problem data seem to be well scaled
Constructing initial basis...
Size of triangular part is 664
      0: obj =   0.000000000e+00  infeas =  7.820e+02 (179)
*   160: obj =   4.400000000e+01  infeas =  0.000e+00 (158)
*   178: obj =   1.500000000e+01  infeas =  0.000e+00 (158)
OPTIMAL LP SOLUTION FOUND
Time used:   0.0 secs
Memory used: 3.1 Mb (3297596 bytes)
#OUTPUT:
15
-31 -13 -28 -13 0 -9 -19 -6 -6 -19 0 0 0 0 0 0 0 0 -18 0 0 0 0 0 0 0 0 0 0 0 0 0 0 0 0 0 0 0 0 0 0 0 0 0 
-13 -13 -24 -13 0 -19 -5 -9 -9 0 0 0 0 -16 0 0 0 0 0 0 0 0 0 -2 0 0 -3 0 0 0 0 0 0 0 0 0 0 0 0 0 0 0 0 0 
0 0 -8 0 0 -8 0 0 0 0 0 0 0 0 0 0 0 0 0 0 0 0 0 0 0 0 0 0 0 0 0 0 0 0 0 0 0 0 0 0 0 0 0 0 
-4 -4 0 0 0 8 -8 -17 -9 0 0 0 0 0 0 0 0 0 0 -4 0 0 0 0 0 0 3 0 0 0 0 0 0 0 0 0 0 0 0 0 0 0 0 0 
-4 0 -3 0 -4 0 -3 -18 2 0 0 0 0 0 0 0 -11 -9 0 0 0 0 0 0 0 0 -3 0 0 0 0 0 0 0 0 0 0 0 0 0 0 0 0 0 
0 0 0 0 0 0 0 0 0 0 0 0 0 0 0 0 0 0 0 0 0 0 0 0 0 0 0 0 0 0 0 0 0 0 0 0 0 0 0 0 0 0 0 0 
0 0 0 0 0 0 0 -21 -1 0 0 0 0 0 -1 0 -18 -2 0 0 0 -18 0 0 0 0 0 0 0 0 0 0 0 0 0 0 0 0 0 0 0 0 0 0 
0 0 -20 0 0 0 0 -14 0 0 0 0 0 0 0 0 -14 0 0 0 0 -14 0 0 0 0 0 0 0 0 0 0 0 0 0 0 0 0 0 0 0 0 0 0 
0 0 0 0 0 0 0 -14 0 0 0 0 0 0 0 0 0 -14 0 0 0 0 0 0 0 0 0 0 0 0 0 0 0 0 0 0 0 0 0 0 0 0 0 0 
-17 -17 -14 0 0 -9 -5 -3 -3 0 0 0 0 0 0 0 0 0 0 -9 0 0 0 0 0 0 -3 0 0 0 0 0 0 0 0 0 0 0 0 0 0 0 0 0 
-25 -25 -11 -6 0 -8 -3 -12 -9 0 0 0 0 -13 0 0 -3 0 0 0 0 -3 -19 0 0 0 -3 0 0 0 0 0 0 0 0 0 0 0 0 0 0 0 0 0 
-2 0 -32 0 0 4 -16 -3 -3 -19 0 0 0 0 0 0 0 0 -2 0 0 0 0 0 0 0 3 0 0 0 0 0 0 0 0 0 0 0 0 0 0 0 0 0 
-21 -19 -4 -10 0 -4 0 -3 -3 0 0 0 0 0 -3 0 0 0 0 0 0 0 -9 0 -3 0 0 0 0 0 0 0 0 0 0 0 0 0 0 0 0 0 0 0 
0 0 -9 0 0 0 -9 -4 -4 -6 0 0 0 -4 -7 -7 0 0 0 0 0 0 0 0 -7 0 -3 0 0 0 0 0 0 0 0 0 0 0 0 0 0 0 0 0 
-7 -5 0 0 -2 0 0 0 0 0 0 0 0 0 0 0 0 0 0 0 0 0 0 0 0 0 0 0 0 0 0 0 0 0 0 0 0 0 0 0 0 0 0 0 
#OUTPUT END
Model has been successfully processed
